Route #1: 20 41 22 15
Route #2: 69 16 55 76
Route #3: 28 42 78 65 25
Route #4: 93 75
Route #5: 5 12 58
Route #6: 89 98 99 62 71
Route #7: 52 91 50
Route #8: 1 70 54
Route #9: 81 51 83
Route #10: 14 49 6 37 87
Route #11: 21 56 94 80
Route #12: 44 67 88 40
Route #13: 34 64 96 48 26 47 38
Route #14: 32 33 53 73 95 24
Route #15: 23 61 100
Route #16: 68 90 84 66
Route #17: 39 10 18
Route #18: 19 97 27
Route #19: 63 77 3
Route #20: 57 72 36 29 43 45 2 7
Route #21: 92 9 86
Route #22: 35 46 31
Route #23: 4 13 74
Route #24: 17 8
Route #25: 59 60 82
Route #26: 30 85 11 79
Cost 27591.0000
Time 16.0010